c 9th DIMACS Implementation Challenge: Shortest Paths
c http://www.dis.uniroma1.it/~challenge9
c TIGER/Line graph USA-road-t.NY
c
p sp 9 24
c graph contains 9 nodes and 24 arcs
c
a 1 6 1
a 6 1 1
a 1 2 3
a 2 1 3
a 2 9 2
a 9 2 2
a 3 6 2
a 6 3 2
a 3 8 1
a 8 3 1
a 4 6 3
a 6 4 3
a 4 7 4
a 7 4 4
a 5 7 2
a 7 5 2
a 5 9 2
a 9 5 2
a 6 8 2
a 8 6 2
a 7 8 11
a 8 7 11
a 8 9 5
a 9 8 5
